nbGenes = 10;
preference = [[0 32 84 82 90 28 66 47 85 55 ]
[68 0 70 34 66 31 33 16 6 65 ]
[16 30 0 65 18 26 52 75 65 44 ]
[18 66 35 0 65 80 62 42 3 13 ]
[10 34 82 35 0 11 46 4 65 64 ]
[72 69 74 20 89 0 32 32 51 42 ]
[34 67 48 38 54 68 0 33 16 56 ]
[53 84 25 58 96 68 67 0 72 59 ]
[15 94 35 97 35 49 84 28 0 50 ]
[45 35 56 87 36 58 44 41 50 0 ]
];
